<number of tasks>
50

<cycle time>
1000

<order strength>
0.904


<task times>
1 254
2 182
3 52
4 138
5 30
6 64
7 287
8 236
9 142
10 70
11 58
12 137
13 115
14 159
15 184
16 161
17 115
18 200
19 241
20 107
21 104
22 167
23 111
24 200
25 41
26 51
27 155
28 33
29 118
30 45
31 31
32 67
33 234
34 128
35 122
36 138
37 218
38 338
39 239
40 107
41 92
42 333
43 185
44 99
45 83
46 183
47 123
48 61
49 236
50 189

<precedence relations>
1,4
1,5
1,6
1,7
2,4
2,5
2,6
2,7
3,4
3,5
3,6
3,7
4,8
4,9
5,8
5,9
6,8
6,9
7,8
7,9
8,10
8,11
8,12
8,13
9,10
9,11
9,12
9,13
10,14
10,15
10,16
11,14
11,15
11,16
12,14
12,15
12,16
13,14
13,15
13,16
14,17
14,18
15,17
15,18
16,17
16,18
17,19
17,20
18,19
18,20
19,21
19,22
20,21
20,22
21,23
21,24
22,23
22,24
23,25
23,26
23,27
24,25
24,26
24,27
25,28
25,29
25,30
25,31
26,28
26,29
26,30
26,31
27,29
28,32
29,33
30,37
30,42
30,47
31,44
32,34
32,35
33,34
34,36
34,37
34,38
35,36
35,37
35,38
36,40
36,41
37,39
37,41
38,39
38,40
39,45
40,42
40,44
41,43
42,48
43,46
44,46
44,47
44,48
46,49
46,50
47,49
47,50

<end>
